sifdecoder -A pc64.lnx.gfo -st   GRIDNETD

 Problem name: GRIDNETD

 Double precision version will be formed

 The objective function uses 1 nonlinear group
 
 There are 3844 linear equality constraints
 
 There are 4899 free variables
 There are 241 variables bounded only from below 
 There are 4 variables bounded from below and above 
 There are 2420 fixed variables
 
 
 File successfully decoded
 CUTEST: tools (double precision version) compiled successfully
 CUTEst: ipopt (double precision version) compiled successfully

******************************************************************************
This program contains Ipopt, a library for large-scale nonlinear optimization.
 Ipopt is released as open source code under the Eclipse Public License (EPL).
         For more information visit http://projects.coin-or.org/Ipopt
******************************************************************************

This is Ipopt version trunk, running with linear solver ma57.

Number of nonzeros in equality constraint Jacobian...:    10288
Number of nonzeros in inequality constraint Jacobian.:        0
Number of nonzeros in Lagrangian Hessian.............:     7867

Total number of variables............................:     5144
                     variables with only lower bounds:      241
                variables with lower and upper bounds:        4
                     variables with only upper bounds:        0
Total number of equality constraints.................:     3844
Total number of inequality constraints...............:        0
        inequality constraints with only lower bounds:        0
   inequality constraints with lower and upper bounds:        0
        inequality constraints with only upper bounds:        0

iter    objective    inf_pr   inf_du lg(mu)  ||d||  lg(rg) alpha_du alpha_pr  ls
   0  9.7571643e+01 9.78e+00 9.36e-01  -1.0 0.00e+00    -  0.00e+00 0.00e+00   0
   1  9.7642900e+01 9.75e+00 1.16e+00  -1.0 6.55e+00    -  1.53e-03 2.57e-03f  1
   2  1.7277661e+02 7.48e+00 3.38e+01  -1.0 8.15e+00    -  3.33e-03 2.33e-01h  1
   3  1.7434672e+02 7.45e+00 2.46e+01  -1.0 7.17e+00    -  4.99e-02 4.44e-03h  1
   4  3.5037718e+02 5.44e+00 1.36e+02  -1.0 7.28e+00    -  3.76e-02 2.70e-01h  1
   5  4.1056857e+02 4.41e+00 1.34e+02  -1.0 5.58e+00    -  8.32e-02 1.89e-01h  1
   6  6.1446430e+02 1.51e-06 5.44e+00  -1.0 4.56e+00    -  1.18e-01 1.00e+00h  1
   7  5.9267804e+02 6.93e-07 3.83e+00  -1.7 2.82e+00    -  2.92e-01 5.51e-01f  1
   8  5.7435769e+02 8.88e-16 2.70e+00  -1.7 3.40e+00    -  2.92e-01 1.00e+00f  1
   9  5.7113078e+02 4.19e-09 1.83e+00  -1.7 3.46e+00    -  3.20e-01 1.00e+00f  1
iter    objective    inf_pr   inf_du lg(mu)  ||d||  lg(rg) alpha_du alpha_pr  ls
  10  5.7105311e+02 1.78e-15 4.15e-01  -1.7 9.83e-01    -  7.73e-01 1.00e+00f  1
  11  5.7083943e+02 1.78e-15 9.70e-02  -2.5 5.17e-01    -  7.64e-01 1.00e+00f  1
  12  5.7074809e+02 8.88e-16 4.08e-03  -3.8 1.02e-01    -  9.58e-01 1.00e+00f  1
  13  5.7072043e+02 2.91e-11 3.57e-05  -3.8 4.67e-02    -  1.00e+00 1.00e+00f  1
  14  5.7071338e+02 3.39e-12 1.88e-03  -5.7 2.45e-02    -  1.00e+00 8.84e-01f  1
  15  5.7071209e+02 4.69e-12 2.28e-03  -5.7 1.28e-02    -  1.00e+00 8.93e-01f  1
  16  5.7071193e+02 1.02e-13 1.58e-04  -5.7 5.33e-03    -  1.00e+00 9.78e-01f  1
  17  5.7071190e+02 3.00e-15 6.76e-05  -8.6 1.94e-03    -  1.00e+00 9.71e-01f  1
  18  5.7071190e+02 1.78e-15 5.27e-09  -8.6 8.31e-04    -  1.00e+00 1.00e+00f  1
  19  5.7071190e+02 9.85e-15 7.49e-10  -8.6 3.11e-04    -  1.00e+00 1.00e+00h  1
iter    objective    inf_pr   inf_du lg(mu)  ||d||  lg(rg) alpha_du alpha_pr  ls
  20  5.7071190e+02 1.78e-15 3.74e-11  -8.6 6.96e-05    -  1.00e+00 1.00e+00h  1
  21  5.7071190e+02 8.88e-16 2.11e-13  -9.0 4.78e-06    -  1.00e+00 1.00e+00h  1

Number of Iterations....: 21

                                   (scaled)                 (unscaled)
Objective...............:   5.7071189889615789e+02    5.7071189889615789e+02
Dual infeasibility......:   2.1143496414815664e-13    2.1143496414815664e-13
Constraint violation....:   8.8817841970012523e-16    8.8817841970012523e-16
Complementarity.........:   9.4418604562427888e-10    9.4418604562427888e-10
Overall NLP error.......:   9.4418604562427888e-10    9.4418604562427888e-10


Number of objective function evaluations             = 22
Number of objective gradient evaluations             = 22
Number of equality constraint evaluations            = 22
Number of inequality constraint evaluations          = 0
Number of equality constraint Jacobian evaluations   = 22
Number of inequality constraint Jacobian evaluations = 0
Number of Lagrangian Hessian evaluations             = 21
Total CPU secs in IPOPT (w/o function evaluations)   =      0.188
Total CPU secs in NLP function evaluations           =      0.044

EXIT: Optimal Solution Found.

************************ CUTEst statistics ************************


 Package used            :  IPOPT
 Problem                 :  GRIDNETD  
 # variables             =            7564
 # constraints           =            3844
 # objective functions   =        0.4500000E+02
 # objective gradients   =        0.2300000E+02
 # objective Hessians    =        0.2200000E+02
 # Hessian-vector prdct  =        0.0000000E+00
 # constraints functions =        0.4600000E+02
 # constraints gradients =        0.2400000E+02
 # constraints Hessians  =        0.2200000E+02
 Exit code               =               0
 Final f                 =        5.7071189889615789D+02
 Bounds feasibility      =        4.9982551431071442D-08
 Set up time             =            0.64 seconds
 Solve time              =            0.41 seconds


******************************************************************

